% Data file generated from RandomInstances/22_0.75_1.col DIMACS file
size = 22;

chi = 9;

adjacency = [|0,1,0,1,1,1,1,0,0,1,0,1,1,1,1,1,1,1,1,1,1,1,
|1,0,1,1,1,1,0,1,1,0,1,1,1,0,1,1,1,0,0,0,0,1,
|0,1,0,0,1,1,0,0,0,0,1,1,1,1,0,0,0,1,1,1,1,1,
|1,1,0,0,1,1,1,0,1,1,1,0,0,1,1,1,1,1,1,0,1,0,
|1,1,1,1,0,1,1,0,0,1,0,1,0,0,1,1,1,0,1,1,1,1,
|1,1,1,1,1,0,1,1,1,0,1,1,1,1,1,1,1,1,1,0,1,1,
|1,0,0,1,1,1,0,0,1,0,1,1,1,1,0,1,1,1,1,1,1,1,
|0,1,0,0,0,1,0,0,0,1,1,1,1,1,1,1,1,0,1,1,0,1,
|0,1,0,1,0,1,1,0,0,1,1,1,1,1,1,0,1,0,1,1,0,1,
|1,0,0,1,1,0,0,1,1,0,0,1,1,1,1,0,0,1,1,1,0,0,
|0,1,1,1,0,1,1,1,1,0,0,1,1,0,0,1,1,1,0,0,0,1,
|1,1,1,0,1,1,1,1,1,1,1,0,1,1,1,1,0,1,1,0,1,1,
|1,1,1,0,0,1,1,1,1,1,1,1,0,1,1,0,1,1,1,1,0,0,
|1,0,1,1,0,1,1,1,1,1,0,1,1,0,1,1,1,1,1,1,1,0,
|1,1,0,1,1,1,0,1,1,1,0,1,1,1,0,1,0,1,0,1,1,1,
|1,1,0,1,1,1,1,1,0,0,1,1,0,1,1,0,1,0,1,1,1,0,
|1,1,0,1,1,1,1,1,1,0,1,0,1,1,0,1,0,1,0,1,1,0,
|1,0,1,1,0,1,1,0,0,1,1,1,1,1,1,0,1,0,1,1,1,1,
|1,0,1,1,1,1,1,1,1,1,0,1,1,1,0,1,0,1,0,1,0,1,
|1,0,1,0,1,0,1,1,1,1,0,0,1,1,1,1,1,1,1,0,0,1,
|1,0,1,1,1,1,1,0,0,0,0,1,0,1,1,1,1,1,0,0,0,1,
|1,1,1,0,1,1,1,1,1,0,1,1,0,0,1,0,0,1,1,1,1,0,
|];